     Program PWSCF v.7.1 starts on 13Feb2024 at 14:50:22

     Reading input from MST-scf.in
Warning: card &CELL ignored
Warning: card        CELL_DYNAMICS = 'BFGS' ignored
Warning: card                PRESS = 0.D0 ignored
Warning: card       PRESS_CONV_THR = 0.01 ignored
Warning: card /&END ignored

     Current dimensions of program PWSCF are:
     Max number of different atomic species (ntypx) = 10
     Max number of k-points (npk) =  40000
     Max angular momentum in pseudopotentials (lmaxx) =  4

     Fixed quantization axis for GGA:     0.000000    0.000000    1.000000
     Message from routine setup:
     the system is metallic, specify occupations
     Message from routine setup:
     using ibrav=0 with symmetry is DISCOURAGED, use correct ibrav instead

     R & G space division:  proc/nbgrp/npool/nimage =      32
     Subspace diagonalization in iterative solution of the eigenvalue problem:
     one sub-group per band group will be used

     Using Slab Decomposition

     bravais-lattice index     =            0
     lattice parameter (alat)  =      26.2798  a.u.
     unit-cell volume          =    1452.5474 (a.u.)^3
     number of atoms/cell      =            7
     number of atomic types    =            3
     number of electrons       =       157.00
     number of Kohn-Sham states=          158
     kinetic-energy cutoff     =     120.0000  Ry
     charge density cutoff     =     480.0000  Ry
     scf convergence threshold =      1.0E-13
     mixing beta               =       0.4000
     number of iterations used =            8  plain     mixing
     Exchange-correlation= PBESOL
                           (   1   4  10   8   0   0   0)
     Noncollinear calculation with spin-orbit

     celldm(1)=  26.279834  celldm(2)=   0.000000  celldm(3)=   0.000000
     celldm(4)=   0.000000  celldm(5)=   0.000000  celldm(6)=   0.000000

     crystal axes: (cart. coord. in units of alat)
               a(1) = (   0.153210   0.088456   0.984227 )
               a(2) = (  -0.153210   0.088456   0.984227 )
               a(3) = (   0.000000  -0.176912   0.984227 )

     reciprocal axes: (cart. coord. in units 2 pi/alat)
               b(1) = (  3.263485  1.884174  0.338675 )
               b(2) = ( -3.263485  1.884174  0.338675 )
               b(3) = (  0.000000 -3.768348  0.338675 )

     PseudoPot. # 1 for Mn read from file:
     /gpfs/work4/0/prjs0822/MST-120-14/pseudo/Mn.upf
     MD5 check sum: 9b50e869e35b4674015a8a9b1d40c02b
     Pseudo is Norm-conserving + core correction, Zval = 15.0
     Generated using ONCVPSP code by D. R. Hamann
     Using radial grid of 1448 points, 10 beta functions with:
                l(1) =   0
                l(2) =   0
                l(3) =   1
                l(4) =   1
                l(5) =   1
                l(6) =   1
                l(7) =   2
                l(8) =   2
                l(9) =   2
               l(10) =   2

     PseudoPot. # 2 for Sb read from file:
     /gpfs/work4/0/prjs0822/MST-120-14/pseudo/Sb.upf
     MD5 check sum: d7e4a923c9e5eb416dd6a712e5c7b634
     Pseudo is Norm-conserving + core correction, Zval = 23.0
     Generated using ONCVPSP code by D. R. Hamann
     Using radial grid of 1452 points, 10 beta functions with:
                l(1) =   0
                l(2) =   0
                l(3) =   1
                l(4) =   1
                l(5) =   1
                l(6) =   1
                l(7) =   2
                l(8) =   2
                l(9) =   2
               l(10) =   2

     PseudoPot. # 3 for Te read from file:
     /gpfs/work4/0/prjs0822/MST-120-14/pseudo/Te.upf
     MD5 check sum: 79d0c337239bdfc348e5dd475cdca76d
     Pseudo is Norm-conserving + core correction, Zval = 24.0
     Generated using ONCVPSP code by D. R. Hamann
     Using radial grid of 1310 points, 10 beta functions with:
                l(1) =   0
                l(2) =   0
                l(3) =   1
                l(4) =   1
                l(5) =   1
                l(6) =   1
                l(7) =   2
                l(8) =   2
                l(9) =   2
               l(10) =   2

     atomic species   valence    mass     pseudopotential
        Mn            15.00     1.00000     Mn( 1.00)
        Sb            23.00     1.00000     Sb( 1.00)
        Te            24.00     1.00000     Te( 1.00)

     12 Sym. Ops., with inversion, found

                                    s                        frac. trans.

      isym =  1     identity

 Time Reversal            0
 cryst.   s( 1) = (     1          0          0      )
                  (     0          1          0      )
                  (     0          0          1      )

 cart.    s( 1) = (  1.0000000  0.0000000  0.0000000 )
                  ( -0.0000000  1.0000000 -0.0000000 )
                  (  0.0000000  0.0000000  1.0000000 )

      isym =  2     180 deg rotation - cart. axis [1,0,0]

[...]

      isym =  3     120 deg rotation - cryst. axis [0,0,1]

[...]

      isym =  6     180 deg rotation - cryst. axis [1,1,0]

[...]

      isym =  7     inversion

[...]

      isym =  8     inv. 180 deg rotation - cart. axis [1,0,0]

[...]

      isym =  9     inv. 120 deg rotation - cryst. axis [0,0,1]

 Time Reversal            0
 cryst.   s( 9) = (     0         -1          0      )
                  (     0          0         -1      )
                  (    -1          0          0      )

 cart.    s( 9) = (  0.5000000  0.8660254 -0.0000000 )
                  ( -0.8660254  0.5000000  0.0000000 )
                  ( -0.0000000  0.0000000 -1.0000000 )

[...]

 Time Reversal            0
 cryst.   s(10) = (     0          0         -1      )
                  (    -1          0          0      )
                  (     0         -1          0      )

 cart.    s(10) = (  0.5000000 -0.8660254 -0.0000000 )
                  (  0.8660254  0.5000000  0.0000000 )
                  (  0.0000000  0.0000000 -1.0000000 )

[...]

      isym = 12     inv. 180 deg rotation - cryst. axis [1,1,0]

 Time Reversal            1
 cryst.   s(12) = (     0          0          1      )
                  (     0          1          0      )
                  (     1          0          0      )

 cart.    s(12) = (  0.5000000 -0.8660254  0.0000000 )
                  ( -0.8660254 -0.5000000 -0.0000000 )
                  (  0.0000000 -0.0000000  1.0000000 )

   Cartesian axes

     site n.     atom                  positions (alat units)
         1           Mn  tau(   1) = (   0.0000000   0.0000000   0.0000000  )
         2           Sb  tau(   2) = (  -0.0000000   0.1769122   0.7132986  )
         3           Sb  tau(   3) = (  -0.0000000   0.1769122   0.2709281  )
         4           Te  tau(   4) = (   0.1532104   0.0884561   0.1214536  )
         5           Te  tau(   5) = (   0.0000000   0.0000000   0.8627731  )
         6           Te  tau(   6) = (   0.1532104   0.0884561   0.5963626  )
         7           Te  tau(   7) = (  -0.0000000   0.0000000   0.3878640  )

   Crystallographic axes

     site n.     atom                  positions (cryst. coord.)
         1           Mn  tau(   1) = (  0.0000000  0.0000000  0.0000000  )
         2           Sb  tau(   2) = (  0.5749100  0.5749100 -0.4250900  )
         3           Sb  tau(   3) = (  0.4250900  0.4250900 -0.5749100  )
         4           Te  tau(   4) = (  0.7078000 -0.2922000 -0.2922000  )
         5           Te  tau(   5) = (  0.2922000  0.2922000  0.2922000  )
         6           Te  tau(   6) = (  0.8686400 -0.1313600 -0.1313600  )
         7           Te  tau(   7) = (  0.1313600  0.1313600  0.1313600  )

     number of k points=   288
                       cart. coord. in units 2pi/alat
        k(    1) = (   0.0000000   0.0000000   0.0000000), wk =   0.0003644
        k(    2) = (   0.0000000  -0.2691677   0.0241911), wk =   0.0021866
        k(    3) = (   0.0000000  -0.5383354   0.0483822), wk =   0.0021866
        k(    4) = (   0.0000000  -0.8075032   0.0725733), wk =   0.0021866
        k(    5) = (   0.0000000  -1.0766709   0.0967644), wk =   0.0021866
        k(    6) = (   0.0000000  -1.3458386   0.1209555), wk =   0.0021866
        k(    7) = (   0.0000000  -1.6150063   0.1451466), wk =   0.0021866
        k(    8) = (  -0.0000000   1.8841740  -0.1693377), wk =   0.0010933
        k(    9) = (  -0.2331061  -0.1345839   0.0483822), wk =   0.0021866
        k(   10) = (  -0.2331061  -0.4037516   0.0725733), wk =   0.0043732
        k(   11) = (  -0.2331061  -0.6729193   0.0967644), wk =   0.0043732
        k(   12) = (  -0.2331061  -0.9420870   0.1209555), wk =   0.0043732
        k(   13) = (  -0.2331061  -1.2112547   0.1451466), wk =   0.0043732
        k(   14) = (  -0.2331061  -1.4804224   0.1693377), wk =   0.0043732
        k(   15) = (  -0.2331061   2.0187579  -0.1451466), wk =   0.0043732
        k(   16) = (  -0.2331061   1.7495902  -0.1209555), wk =   0.0043732
        k(   17) = (  -0.2331061   1.4804224  -0.0967644), wk =   0.0043732
        k(   18) = (  -0.2331061   1.2112547  -0.0725733), wk =   0.0043732
        k(   19) = (  -0.2331061   0.9420870  -0.0483822), wk =   0.0043732
        k(   20) = (  -0.2331061   0.6729193  -0.0241911), wk =   0.0043732
        k(   21) = (  -0.2331061   0.4037516   0.0000000), wk =   0.0021866
        k(   22) = (  -0.4662122  -0.2691677   0.0967644), wk =   0.0021866
        k(   23) = (  -0.4662122  -0.5383354   0.1209555), wk =   0.0043732
        k(   24) = (  -0.4662122  -0.8075032   0.1451466), wk =   0.0043732
        k(   25) = (  -0.4662122  -1.0766709   0.1693377), wk =   0.0043732
        k(   26) = (  -0.4662122  -1.3458386   0.1935288), wk =   0.0043732
        k(   27) = (  -0.4662122   2.1533417  -0.1209555), wk =   0.0043732
        k(   28) = (  -0.4662122   1.8841740  -0.0967644), wk =   0.0043732
        k(   29) = (  -0.4662122   1.6150063  -0.0725733), wk =   0.0043732
        k(   30) = (  -0.4662122   1.3458386  -0.0483822), wk =   0.0043732
        k(   31) = (  -0.4662122   1.0766709  -0.0241911), wk =   0.0043732
        k(   32) = (  -0.4662122   0.8075032  -0.0000000), wk =   0.0021866
        k(   33) = (  -0.6993182  -0.4037516   0.1451466), wk =   0.0021866
        k(   34) = (  -0.6993182  -0.6729193   0.1693377), wk =   0.0043732
        k(   35) = (  -0.6993182  -0.9420870   0.1935288), wk =   0.0043732
        k(   36) = (  -0.6993182  -1.2112547   0.2177199), wk =   0.0043732
        k(   37) = (  -0.6993182   2.2879256  -0.0967644), wk =   0.0043732
        k(   38) = (  -0.6993182   2.0187579  -0.0725733), wk =   0.0043732
        k(   39) = (  -0.6993182   1.7495902  -0.0483822), wk =   0.0043732
        k(   40) = (  -0.6993182   1.4804224  -0.0241911), wk =   0.0043732
        k(   41) = (  -0.6993182   1.2112547  -0.0000000), wk =   0.0021866
        k(   42) = (  -0.9324243  -0.5383354   0.1935288), wk =   0.0021866
        k(   43) = (  -0.9324243  -0.8075032   0.2177199), wk =   0.0043732
        k(   44) = (  -0.9324243  -1.0766709   0.2419110), wk =   0.0043732
        k(   45) = (  -0.9324243   2.4225095  -0.0725733), wk =   0.0043732
        k(   46) = (  -0.9324243   2.1533417  -0.0483822), wk =   0.0043732
[...]
        k(  284) = (   0.4285714   0.4285714  -0.5000000), wk =   0.0021866
        k(  285) = (   0.4285714   0.4285714  -0.4285714), wk =   0.0021866
        k(  286) = (   0.4285714  -0.5000000  -0.5000000), wk =   0.0021866
        k(  287) = (   0.4285714  -0.5000000  -0.4285714), wk =   0.0021866
        k(  288) = (  -0.5000000  -0.5000000  -0.5000000), wk =   0.0003644

     Initial potential from superposition of free atoms

     starting charge     156.9976, renormalised to     157.0000

     atom number    1 relative position :    0.0000   0.0000   0.0000
     charge :    13.714876  (integrated on a sphere of radius 0.089)
     magnetization :          0.000000    0.000000   13.452244
     magnetization/charge:    0.000000    0.000000    0.980851
     polar coord.: r, theta, phi [deg] :    13.452244    0.000000  360.000000

[...]

     Starting wfcs are  176 randomized atomic wfcs

     Self-consistent Calculation

     iteration #  1     ecut=   120.00 Ry     beta= 0.40
     Davidson diagonalization with overlap

     ethr =  1.00E-02,  avg # of iterations =  2.0

     total energy              =   -3476.18377314 Ry
     estimated scf accuracy    <       2.63424751 Ry

     total magnetization       =     0.00     0.00     5.01 Bohr mag/cell
     absolute magnetization    =     5.57 Bohr mag/cell

[...]

     c_bands:  1 eigenvalues not converged
     c_bands:  1 eigenvalues not converged
     c_bands:  1 eigenvalues not converged
     c_bands:  1 eigenvalues not converged
     ethr =  2.58E-04,  avg # of iterations =  7.2

[...]

     c_bands:  1 eigenvalues not converged
     c_bands:  1 eigenvalues not converged
     c_bands:  1 eigenvalues not converged
     c_bands:  1 eigenvalues not converged
     c_bands:  1 eigenvalues not converged
     c_bands:  1 eigenvalues not converged
     c_bands:  1 eigenvalues not converged
     c_bands:  1 eigenvalues not converged
     c_bands:  1 eigenvalues not converged
     c_bands:  1 eigenvalues not converged
     c_bands:  1 eigenvalues not converged
     ethr =  1.00E-13,  avg # of iterations =  8.8

[...]

     total energy              =   -3476.96473590 Ry
     estimated scf accuracy    <          5.0E-13 Ry

[...]

     iteration # 25     ecut=   120.00 Ry     beta= 0.40
     Davidson diagonalization with overlap

     ethr =  1.00E-13,  avg # of iterations =  1.5

[...]

     atom number    7 relative position :   -0.0000   0.0000   0.3879
     charge :    21.705749  (integrated on a sphere of radius 0.087)
     magnetization :         -0.000000    0.000000    0.051578
     magnetization/charge:   -0.000000    0.000000    0.002376
     polar coord.: r, theta, phi [deg] :     0.051578    0.000000  360.000000

     End of self-consistent calculation

          k = 0.0000 0.0000 0.0000 ( 32143 PWs)   bands (ev):

  -148.6789-148.6789-148.6736-148.6736-148.1760-148.1760-148.1721-148.1721
  -133.8210-133.8210-133.8161-133.8161-105.5819-105.5818-105.5799-105.5798
  -105.0783-105.0783-105.0765-105.0765 -95.8511 -95.8511 -95.8450 -95.8450
   -95.8378 -95.8378 -95.8363 -95.8363 -95.3477 -95.3476 -95.3466 -95.3466
   -95.3319 -95.3319 -95.3273 -95.3273 -92.8534 -92.8534 -92.8512 -92.8512
   -84.2417 -84.2417 -84.2391 -84.2391 -84.2367 -84.2367 -84.2361 -84.2361
   -70.7557 -66.2784 -40.1334 -39.7019 -39.2199 -35.5753 -35.1471 -34.8209
   -27.1452 -27.1447 -27.1389 -27.1383 -27.1290 -27.1274 -27.1272 -27.1255
   -26.6382 -26.6375 -26.6366 -26.6359 -26.6183 -26.6180 -26.6141 -26.6138
   -25.6834 -25.6832 -25.6727 -25.6723 -25.6701 -25.6673 -25.6643 -25.6615
   -25.6594 -25.6587 -25.6576 -25.6567 -25.1714 -25.1708 -25.1705 -25.1699
   -25.1652 -25.1642 -25.1615 -25.1605 -25.1470 -25.1469 -25.1400 -25.1399
   -19.5275 -19.5275 -19.5217 -19.5217 -19.5208 -19.5208 -19.5193 -19.5193
   -18.2880 -18.2880 -18.2817 -18.2817 -18.2793 -18.2793 -18.2761 -18.2761
   -18.2758 -18.2758 -18.2748 -18.2748  -2.4755  -2.4156  -2.1797  -2.1228
    -1.0394  -0.9518  -0.4073  -0.3578   2.2999   2.3912   3.2415   3.2967
     6.4759   6.8361   7.2356   7.2571   7.7798   7.7928   7.8914   8.2326
     8.2846   8.3192   8.3468   8.6548   8.8666   8.8762   8.8956   9.0151
     9.0271   9.0427   9.0510   9.0694   9.2954   9.6033   9.6516  10.0360
    10.1315  10.2121  10.4837  10.7745  10.7940  10.8414

     occupation numbers
     1.0000   1.0000   1.0000   1.0000   1.0000   1.0000   1.0000   1.0000
     1.0000   1.0000   1.0000   1.0000   1.0000   1.0000   1.0000   1.0000
     1.0000   1.0000   1.0000   1.0000   1.0000   1.0000   1.0000   1.0000
     1.0000   1.0000   1.0000   1.0000   1.0000   1.0000   1.0000   1.0000
     1.0000   1.0000   1.0000   1.0000   1.0000   1.0000   1.0000   1.0000
     1.0000   1.0000   1.0000   1.0000   1.0000   1.0000   1.0000   1.0000
     1.0000   1.0000   1.0000   1.0000   1.0000   1.0000   1.0000   1.0000
     1.0000   1.0000   1.0000   1.0000   1.0000   1.0000   1.0000   1.0000
     1.0000   1.0000   1.0000   1.0000   1.0000   1.0000   1.0000   1.0000
     1.0000   1.0000   1.0000   1.0000   1.0000   1.0000   1.0000   1.0000
     1.0000   1.0000   1.0000   1.0000   1.0000   1.0000   1.0000   1.0000
     1.0000   1.0000   1.0000   1.0000   1.0000   1.0000   1.0000   1.0000
     1.0000   1.0000   1.0000   1.0000   1.0000   1.0000   1.0000   1.0000
     1.0000   1.0000   1.0000   1.0000   1.0000   1.0000   1.0000   1.0000
     1.0000   1.0000   1.0000   1.0000   1.0000   1.0000   1.0000   1.0000
     1.0000   1.0000   1.0000   1.0000   1.0000   1.0000   1.0000   1.0000
     1.0000   1.0000   1.0000   1.0000   1.0000   1.0000   1.0000   1.0000
     1.0000   1.0000   1.0000   1.0000   1.0000   1.0000   1.0000   1.0000
     1.0000   1.0000   1.0000   1.0000   1.0000   1.0000   1.0000   1.0000
     1.0000   1.0000   1.0000   1.0000   1.0000   0.0000

[...]

          k =-0.0000 1.8842-0.1693 ( 32272 PWs)   bands (ev):

[...]

          k = 3.0304 1.4804-0.1693 ( 32216 PWs)   bands (ev):

[...]

          k =-0.0000 0.0000-0.5080 ( 32154 PWs)   bands (ev):

  -148.6789-148.6789-148.6736-148.6736-148.1760-148.1760-148.1721-148.1721
  -133.8210-133.8210-133.8161-133.8161-105.5819-105.5818-105.5799-105.5798
  -105.0783-105.0783-105.0765-105.0765 -95.8511 -95.8511 -95.8450 -95.8450
   -95.8378 -95.8378 -95.8363 -95.8363 -95.3477 -95.3476 -95.3466 -95.3466
   -95.3319 -95.3319 -95.3273 -95.3273 -92.8534 -92.8534 -92.8512 -92.8512
   -84.2417 -84.2417 -84.2391 -84.2391 -84.2367 -84.2367 -84.2361 -84.2361
   -70.7557 -66.2784 -40.1334 -39.7019 -39.2199 -35.5753 -35.1471 -34.8209
   -27.1452 -27.1447 -27.1389 -27.1383 -27.1290 -27.1274 -27.1272 -27.1255
   -26.6382 -26.6375 -26.6366 -26.6359 -26.6183 -26.6180 -26.6141 -26.6138
   -25.6834 -25.6832 -25.6727 -25.6723 -25.6701 -25.6673 -25.6643 -25.6615
   -25.6594 -25.6587 -25.6576 -25.6567 -25.1714 -25.1708 -25.1705 -25.1699
   -25.1652 -25.1642 -25.1615 -25.1605 -25.1470 -25.1469 -25.1400 -25.1399
   -19.5275 -19.5275 -19.5217 -19.5217 -19.5208 -19.5208 -19.5193 -19.5193
   -18.2880 -18.2880 -18.2817 -18.2817 -18.2793 -18.2793 -18.2761 -18.2761
   -18.2758 -18.2758 -18.2748 -18.2748  -2.4461  -2.3888  -2.2342  -2.1723
    -0.8754  -0.7887  -0.5828  -0.5316   2.6371   2.6926   2.8752   2.9724
     6.7448   7.0883   7.2571   7.3703   7.7453   7.7722   7.7801   7.7928
     8.0942   8.4292   8.4550   8.5359   8.5587   8.8803   8.8986   8.9355
     8.9571   9.0390   9.2100   9.2211   9.3821   9.8650   9.8692  10.0569
    10.0729  10.1372  10.5010  10.5919  10.6032  10.9524

     occupation numbers
     1.0000   1.0000   1.0000   1.0000   1.0000   1.0000   1.0000   1.0000
     1.0000   1.0000   1.0000   1.0000   1.0000   1.0000   1.0000   1.0000
     1.0000   1.0000   1.0000   1.0000   1.0000   1.0000   1.0000   1.0000
     1.0000   1.0000   1.0000   1.0000   1.0000   1.0000   1.0000   1.0000
     1.0000   1.0000   1.0000   1.0000   1.0000   1.0000   1.0000   1.0000
     1.0000   1.0000   1.0000   1.0000   1.0000   1.0000   1.0000   1.0000
     1.0000   1.0000   1.0000   1.0000   1.0000   1.0000   1.0000   1.0000
     1.0000   1.0000   1.0000   1.0000   1.0000   1.0000   1.0000   1.0000
     1.0000   1.0000   1.0000   1.0000   1.0000   1.0000   1.0000   1.0000
     1.0000   1.0000   1.0000   1.0000   1.0000   1.0000   1.0000   1.0000
     1.0000   1.0000   1.0000   1.0000   1.0000   1.0000   1.0000   1.0000
     1.0000   1.0000   1.0000   1.0000   1.0000   1.0000   1.0000   1.0000
     1.0000   1.0000   1.0000   1.0000   1.0000   1.0000   1.0000   1.0000
     1.0000   1.0000   1.0000   1.0000   1.0000   1.0000   1.0000   1.0000
     1.0000   1.0000   1.0000   1.0000   1.0000   1.0000   1.0000   1.0000
     1.0000   1.0000   1.0000   1.0000   1.0000   1.0000   1.0000   1.0000
     1.0000   1.0000   1.0000   1.0000   1.0000   1.0000   1.0000   1.0000
     1.0000   1.0000   1.0000   1.0000   1.0000   1.0000   1.0000   1.0000
     1.0000   1.0000   1.0000   1.0000   1.0000   1.0000   1.0000   1.0000
     1.0000   1.0000   1.0000   1.0000   1.0000   0.0000

     highest occupied, lowest unoccupied level (ev):    10.8090   10.8223

!    total energy              =   -3476.96473590 Ry
     estimated scf accuracy    <          6.3E-14 Ry

     The total energy is the sum of the following terms:
     one-electron contribution =   -2530.98279555 Ry
     hartree contribution      =    1207.22576301 Ry
     xc contribution           =    -467.79205091 Ry
     ewald contribution        =   -1685.41565245 Ry

     total magnetization       =     0.00    -0.00     4.99 Bohr mag/cell
     absolute magnetization    =     5.01 Bohr mag/cell

     convergence has been achieved in  25 iterations

     Forces acting on atoms (cartesian axes, Ry/au):

     atom    1 type  1   force =    -0.00000000   -0.00000000   -0.00000000
     atom    2 type  2   force =    -0.00000000   -0.00000000    0.02053497
     atom    3 type  2   force =     0.00000000    0.00000000   -0.02053497
     atom    4 type  3   force =     0.00000000    0.00000000   -0.02023999
     atom    5 type  3   force =     0.00000000   -0.00000000    0.02023999
     atom    6 type  3   force =     0.00000000    0.00000000   -0.01369497
     atom    7 type  3   force =    -0.00000000    0.00000000    0.01369497
     The non-local contrib.  to forces
     atom    1 type  1   force =    -0.00000000    0.00000000   -0.00000000
     atom    2 type  2   force =    -0.00000000    0.00000000   -0.31684784
     atom    3 type  2   force =     0.00000000   -0.00000000    0.31684784
     atom    4 type  3   force =    -0.00000000    0.00000000    0.05849736
     atom    5 type  3   force =    -0.00000000   -0.00000000   -0.05849736
     atom    6 type  3   force =    -0.00000000    0.00000000    0.42927968
     atom    7 type  3   force =     0.00000000    0.00000000   -0.42927968
     The ionic contribution  to forces
     atom    1 type  1   force =     0.00000000    0.00000000   -0.00000000
     atom    2 type  2   force =     0.00000000    0.00000000   -6.97551731
     atom    3 type  2   force =     0.00000000    0.00000000    6.97551731
     atom    4 type  3   force =     0.00000000    0.00000000   -0.80999077
     atom    5 type  3   force =     0.00000000    0.00000000    0.80999077
     atom    6 type  3   force =     0.00000000    0.00000000  -33.00629473
     atom    7 type  3   force =     0.00000000    0.00000000   33.00629473
     The local contribution  to forces
     atom    1 type  1   force =    -0.00000000   -0.00000000    0.00000000
     atom    2 type  2   force =    -0.00000000    0.00000000    7.30824419
     atom    3 type  2   force =    -0.00000000    0.00000000   -7.30824419
     atom    4 type  3   force =     0.00000000    0.00000000    0.73399087
     atom    5 type  3   force =    -0.00000000   -0.00000000   -0.73399087
     atom    6 type  3   force =    -0.00000000    0.00000000   32.56572992
     atom    7 type  3   force =     0.00000000   -0.00000000  -32.56572992
     The core correction contribution to forces
     atom    1 type  1   force =    -0.00000000   -0.00000000    0.00000000
     atom    2 type  2   force =    -0.00000000   -0.00000000    0.00465543
     atom    3 type  2   force =    -0.00000000   -0.00000000   -0.00465543
     atom    4 type  3   force =    -0.00000000    0.00000000   -0.00273712
     atom    5 type  3   force =    -0.00000000   -0.00000000    0.00273712
     atom    6 type  3   force =    -0.00000000    0.00000000   -0.00240997
     atom    7 type  3   force =    -0.00000000   -0.00000000    0.00240997
     The Hubbard contrib.    to forces
     atom    1 type  1   force =     0.00000000    0.00000000    0.00000000
     atom    2 type  2   force =     0.00000000    0.00000000    0.00000000
     atom    3 type  2   force =     0.00000000    0.00000000    0.00000000
     atom    4 type  3   force =     0.00000000    0.00000000    0.00000000
     atom    5 type  3   force =     0.00000000    0.00000000    0.00000000
     atom    6 type  3   force =     0.00000000    0.00000000    0.00000000
     atom    7 type  3   force =     0.00000000    0.00000000    0.00000000
     The SCF correction term to forces
     atom    1 type  1   force =    -0.00000000   -0.00000000   -0.00000000
     atom    2 type  2   force =     0.00000000   -0.00000000    0.00000050
     atom    3 type  2   force =    -0.00000000    0.00000000   -0.00000050
     atom    4 type  3   force =     0.00000000   -0.00000000   -0.00000034
     atom    5 type  3   force =     0.00000000   -0.00000000    0.00000034
     atom    6 type  3   force =     0.00000000    0.00000000    0.00000013
     atom    7 type  3   force =    -0.00000000   -0.00000000   -0.00000013

     Total force =     0.045142     Total SCF correction =     0.000001

     Computing stress (Cartesian axis) and pressure

          total   stress  (Ry/bohr**3)                   (kbar)     P=      -15.60
  -0.00009481  -0.00000000  -0.00000000          -13.95       -0.00       -0.00
   0.00000000  -0.00009481   0.00000000            0.00      -13.95        0.00
   0.00000000   0.00000000  -0.00012842            0.00        0.00      -18.89

     kinetic stress (kbar)  81031.15     -0.00     -0.00
                               -0.00  81031.15      0.00
                               -0.00      0.00  81038.55

     local   stress (kbar) -46354.63     -0.00      0.00
                               -0.00 -46354.63     -0.00
                                0.00     -0.00 -37489.10

     nonloc. stress (kbar)  -9430.12      0.00     -0.00
                                0.00  -9430.12     -0.00
                               -0.00     -0.00  -9438.19

     hartree stress (kbar)  42155.63     -0.00      0.00
                               -0.00  42155.63     -0.00
                                0.00     -0.00  37949.16

     exc-cor stress (kbar)   9215.21     -0.00     -0.00
                               -0.00   9215.21     -0.00
                               -0.00     -0.00   9215.39

     corecor stress (kbar) -21289.53     -0.00     -0.00
                               -0.00 -21289.53      0.00
                               -0.00      0.00 -21289.45

     ewald   stress (kbar) -55341.65      0.00      0.00
                                0.00 -55341.65      0.00
                                0.00      0.00 -60005.25

     hubbard stress (kbar)      0.00      0.00      0.00
                                0.00      0.00      0.00
                                0.00      0.00      0.00

     DFT-D   stress (kbar)      0.00      0.00      0.00
                                0.00      0.00      0.00
                                0.00      0.00      0.00

     XDM     stress (kbar)      0.00      0.00      0.00
                                0.00      0.00      0.00
                                0.00      0.00      0.00

     dft-nl  stress (kbar)      0.00      0.00      0.00
                                0.00      0.00      0.00
                                0.00      0.00      0.00

     TS-vdW  stress (kbar)      0.00      0.00      0.00
                                0.00      0.00      0.00
                                0.00      0.00      0.00

     MDB     stress (kbar)      0.00      0.00      0.00
                                0.00      0.00      0.00
                                0.00      0.00      0.00

     3D-RISM stress (kbar)      0.00      0.00      0.00
                                0.00      0.00      0.00
                                0.00      0.00      0.00

     Writing all to output data dir /gpfs/work4/0/prjs0822/RELAXATION-MST/out/MST.save/

     General routines

     Parallel routines

   This run was terminated on:   4:42:20  15Feb2024

   JOB DONE.