     Program PWSCF v.7.1 starts on  5Nov2023 at 14:40:12

     Reading input from MST-FM_scf.in

     Current dimensions of program PWSCF are:
     Max number of different atomic species (ntypx) = 10
     Max number of k-points (npk) =  40000
     Max angular momentum in pseudopotentials (lmaxx) =  4

     Fixed quantization axis for GGA:     0.000000    0.000000    1.000000
     Message from routine setup:
     the system is metallic, specify occupations
     Message from routine setup:
     using ibrav=0 with symmetry is DISCOURAGED, use correct ibrav instead

     K-points division:     npool     =       4
     R & G space division:  proc/nbgrp/npool/nimage =      64
     Subspace diagonalization in iterative solution of the eigenvalue problem:
     one sub-group per band group will be used

     Using Slab Decomposition

     bravais-lattice index     =            0
     lattice parameter (alat)  =      26.2798  a.u.
     unit-cell volume          =    1452.5474 (a.u.)^3
     number of atoms/cell      =            7
     number of atomic types    =            3
     number of electrons       =       157.00
     number of Kohn-Sham states=          158
     kinetic-energy cutoff     =     120.0000  Ry
     charge density cutoff     =     480.0000  Ry
     scf convergence threshold =      1.0E-13
     mixing beta               =       0.4000
     number of iterations used =            8  plain     mixing
     Exchange-correlation= PBESOL
                           (   1   4  10   8   0   0   0)
     Noncollinear calculation with spin-orbit

     celldm(1)=  26.279834  celldm(2)=   0.000000  celldm(3)=   0.000000
     celldm(4)=   0.000000  celldm(5)=   0.000000  celldm(6)=   0.000000

     crystal axes: (cart. coord. in units of alat)
               a(1) = (   0.153210   0.088456   0.984227 )
               a(2) = (  -0.153210   0.088456   0.984227 )
               a(3) = (   0.000000  -0.176912   0.984227 )

     reciprocal axes: (cart. coord. in units 2 pi/alat)
               b(1) = (  3.263485  1.884174  0.338675 )
               b(2) = ( -3.263485  1.884174  0.338675 )
               b(3) = (  0.000000 -3.768348  0.338675 )

     PseudoPot. # 1 for Mn read from file:
     /projects/0/prjs0388/Farhan/MST-qe/pseudo/Mn.upf
     MD5 check sum: 9b50e869e35b4674015a8a9b1d40c02b
     Pseudo is Norm-conserving + core correction, Zval = 15.0
     Generated using ONCVPSP code by D. R. Hamann
     Using radial grid of 1448 points, 10 beta functions with:
                l(1) =   0
                l(2) =   0
                l(3) =   1
                l(4) =   1
                l(5) =   1
                l(6) =   1
                l(7) =   2
                l(8) =   2
                l(9) =   2
               l(10) =   2

     PseudoPot. # 2 for Sb read from file:
     /projects/0/prjs0388/Farhan/MST-qe/pseudo/Sb.upf
     MD5 check sum: d7e4a923c9e5eb416dd6a712e5c7b634
     Pseudo is Norm-conserving + core correction, Zval = 23.0
     Generated using ONCVPSP code by D. R. Hamann
     Using radial grid of 1452 points, 10 beta functions with:
                l(1) =   0
                l(2) =   0
                l(3) =   1
                l(4) =   1
                l(5) =   1
                l(6) =   1
                l(7) =   2
                l(8) =   2
                l(9) =   2
               l(10) =   2

     PseudoPot. # 3 for Te read from file:
     /projects/0/prjs0388/Farhan/MST-qe/pseudo/Te.upf
     MD5 check sum: 79d0c337239bdfc348e5dd475cdca76d
     Pseudo is Norm-conserving + core correction, Zval = 24.0
     Generated using ONCVPSP code by D. R. Hamann
     Using radial grid of 1310 points, 10 beta functions with:
                l(1) =   0
                l(2) =   0
                l(3) =   1
                l(4) =   1
                l(5) =   1
                l(6) =   1
                l(7) =   2
                l(8) =   2
                l(9) =   2
               l(10) =   2

     atomic species   valence    mass     pseudopotential
        Mn            15.00     1.00000     Mn( 1.00)
        Sb            23.00     1.00000     Sb( 1.00)
        Te            24.00     1.00000     Te( 1.00)

     12 Sym. Ops., with inversion, found

                                    s                        frac. trans.

      isym =  1     identity

 Time Reversal            0
 cryst.   s( 1) = (     1          0          0      )
                  (     0          1          0      )
                  (     0          0          1      )

 cart.    s( 1) = (  1.0000000  0.0000000  0.0000000 )
                  ( -0.0000000  1.0000000 -0.0000000 )
                  (  0.0000000  0.0000000  1.0000000 )

      isym =  2     180 deg rotation - cart. axis [1,0,0]

[...]

      isym =  3     120 deg rotation - cryst. axis [0,0,1]

[...]

      isym =  6     180 deg rotation - cryst. axis [1,1,0]

[...]

      isym =  7     inversion

[...]

      isym =  8     inv. 180 deg rotation - cart. axis [1,0,0]

[...]

      isym =  9     inv. 120 deg rotation - cryst. axis [0,0,1]

 Time Reversal            0
 cryst.   s( 9) = (     0         -1          0      )
                  (     0          0         -1      )
                  (    -1          0          0      )

 cart.    s( 9) = (  0.5000000  0.8660254 -0.0000000 )
                  ( -0.8660254  0.5000000  0.0000000 )
                  ( -0.0000000  0.0000000 -1.0000000 )

[...]

 Time Reversal            0
 cryst.   s(10) = (     0          0         -1      )
                  (    -1          0          0      )
                  (     0         -1          0      )

 cart.    s(10) = (  0.5000000 -0.8660254 -0.0000000 )
                  (  0.8660254  0.5000000  0.0000000 )
                  (  0.0000000  0.0000000 -1.0000000 )

[...]

      isym = 12     inv. 180 deg rotation - cryst. axis [1,1,0]

 Time Reversal            1
 cryst.   s(12) = (     0          0          1      )
                  (     0          1          0      )
                  (     1          0          0      )

 cart.    s(12) = (  0.5000000 -0.8660254  0.0000000 )
                  ( -0.8660254 -0.5000000 -0.0000000 )
                  (  0.0000000 -0.0000000  1.0000000 )

   Cartesian axes

     site n.     atom                  positions (alat units)
         1           Mn  tau(   1) = (   0.0000000   0.0000000   0.0000000  )
         2           Sb  tau(   2) = (  -0.0000000   0.1769122   0.7132986  )
         3           Sb  tau(   3) = (  -0.0000000   0.1769122   0.2709281  )
         4           Te  tau(   4) = (   0.1532104   0.0884561   0.1214536  )
         5           Te  tau(   5) = (   0.0000000   0.0000000   0.8627731  )
         6           Te  tau(   6) = (   0.1532104   0.0884561   0.5963626  )
         7           Te  tau(   7) = (  -0.0000000   0.0000000   0.3878640  )

   Crystallographic axes

     site n.     atom                  positions (cryst. coord.)
         1           Mn  tau(   1) = (  0.0000000  0.0000000  0.0000000  )
         2           Sb  tau(   2) = (  0.5749100  0.5749100 -0.4250900  )
         3           Sb  tau(   3) = (  0.4250900  0.4250900 -0.5749100  )
         4           Te  tau(   4) = (  0.7078000 -0.2922000 -0.2922000  )
         5           Te  tau(   5) = (  0.2922000  0.2922000  0.2922000  )
         6           Te  tau(   6) = (  0.8686400 -0.1313600 -0.1313600  )
         7           Te  tau(   7) = (  0.1313600  0.1313600  0.1313600  )

     number of k points=   417
                       cart. coord. in units 2pi/alat
        k(    1) = (   0.0000000   0.0000000   0.0000000), wk =   0.0002441
        k(    2) = (   0.0000000  -0.2355218   0.0211672), wk =   0.0014648
        k(    3) = (   0.0000000  -0.4710435   0.0423344), wk =   0.0014648
        k(    4) = (   0.0000000  -0.7065653   0.0635016), wk =   0.0014648
        k(    5) = (   0.0000000  -0.9420870   0.0846688), wk =   0.0014648
        k(    6) = (   0.0000000  -1.1776088   0.1058361), wk =   0.0014648
        k(    7) = (   0.0000000  -1.4131305   0.1270033), wk =   0.0014648
        k(    8) = (   0.0000000  -1.6486523   0.1481705), wk =   0.0014648
        k(    9) = (  -0.0000000   1.8841740  -0.1693377), wk =   0.0007324
        k(   10) = (  -0.2039678  -0.1177609   0.0423344), wk =   0.0014648
        k(   11) = (  -0.2039678  -0.3532826   0.0635016), wk =   0.0029297
        k(   12) = (  -0.2039678  -0.5888044   0.0846688), wk =   0.0029297
        k(   13) = (  -0.2039678  -0.8243261   0.1058361), wk =   0.0029297
        k(   14) = (  -0.2039678  -1.0598479   0.1270033), wk =   0.0029297
        k(   15) = (  -0.2039678  -1.2953696   0.1481705), wk =   0.0029297
        k(   16) = (  -0.2039678  -1.5308914   0.1693377), wk =   0.0029297
        k(   17) = (  -0.2039678   2.0019349  -0.1481705), wk =   0.0029297
        k(   18) = (  -0.2039678   1.7664131  -0.1270033), wk =   0.0029297
        k(   19) = (  -0.2039678   1.5308914  -0.1058361), wk =   0.0029297
        k(   20) = (  -0.2039678   1.2953696  -0.0846688), wk =   0.0029297
        k(   21) = (  -0.2039678   1.0598479  -0.0635016), wk =   0.0029297
        k(   22) = (  -0.2039678   0.8243261  -0.0423344), wk =   0.0029297
        k(   23) = (  -0.2039678   0.5888044  -0.0211672), wk =   0.0029297
        k(   24) = (  -0.2039678   0.3532826   0.0000000), wk =   0.0014648
        k(   25) = (  -0.4079356  -0.2355218   0.0846688), wk =   0.0014648
        k(   26) = (  -0.4079356  -0.4710435   0.1058361), wk =   0.0029297
        k(   27) = (  -0.4079356  -0.7065653   0.1270033), wk =   0.0029297
        k(   28) = (  -0.4079356  -0.9420870   0.1481705), wk =   0.0029297
        k(   29) = (  -0.4079356  -1.1776088   0.1693377), wk =   0.0029297
        k(   30) = (  -0.4079356  -1.4131305   0.1905049), wk =   0.0029297
        k(   31) = (  -0.4079356   2.1196958  -0.1270033), wk =   0.0029297
        k(   32) = (  -0.4079356   1.8841740  -0.1058361), wk =   0.0029297
        k(   33) = (  -0.4079356   1.6486523  -0.0846688), wk =   0.0029297
        k(   34) = (  -0.4079356   1.4131305  -0.0635016), wk =   0.0029297
        k(   35) = (  -0.4079356   1.1776088  -0.0423344), wk =   0.0029297
        k(   36) = (  -0.4079356   0.9420870  -0.0211672), wk =   0.0029297
        k(   37) = (  -0.4079356   0.7065653   0.0000000), wk =   0.0014648
        k(   38) = (  -0.6119035  -0.3532826   0.1270033), wk =   0.0014648
        k(   39) = (  -0.6119035  -0.5888044   0.1481705), wk =   0.0029297
        k(   40) = (  -0.6119035  -0.8243261   0.1693377), wk =   0.0029297
        k(   41) = (  -0.6119035  -1.0598479   0.1905049), wk =   0.0029297
        k(   42) = (  -0.6119035  -1.2953696   0.2116721), wk =   0.0029297
        k(   43) = (  -0.6119035   2.2374566  -0.1058361), wk =   0.0029297
        k(   44) = (  -0.6119035   2.0019349  -0.0846688), wk =   0.0029297
        k(   45) = (  -0.6119035   1.7664131  -0.0635016), wk =   0.0029297
        k(   46) = (  -0.6119035   1.5308914  -0.0423344), wk =   0.0029297
        k(   47) = (  -0.6119035   1.2953696  -0.0211672), wk =   0.0029297
        k(   48) = (  -0.6119035   1.0598479  -0.0000000), wk =   0.0014648
        k(   49) = (  -0.8158713  -0.4710435   0.1693377), wk =   0.0014648
        k(   50) = (  -0.8158713  -0.7065653   0.1905049), wk =   0.0029297
        k(   51) = (  -0.8158713  -0.9420870   0.2116721), wk =   0.0029297
        k(   52) = (  -0.8158713  -1.1776088   0.2328393), wk =   0.0029297
        k(   53) = (  -0.8158713   2.3552175  -0.0846688), wk =   0.0029297
        k(   54) = (  -0.8158713   2.1196958  -0.0635016), wk =   0.0029297
        k(   55) = (  -0.8158713   1.8841740  -0.0423344), wk =   0.0029297
        k(   56) = (  -0.8158713   1.6486523  -0.0211672), wk =   0.0029297
        k(   57) = (  -0.8158713   1.4131305   0.0000000), wk =   0.0014648
        k(   58) = (  -1.0198391  -0.5888044   0.2116721), wk =   0.0014648
        k(   59) = (  -1.0198391  -0.8243261   0.2328393), wk =   0.0029297
        k(   60) = (  -1.0198391  -1.0598479   0.2540065), wk =   0.0029297
[...]
        k(  403) = (  -0.0000000   2.8262610   0.1270033), wk =   0.0014648
        k(  404) = (  -0.2039678  -0.1177609   0.4233442), wk =   0.0014648
        k(  405) = (  -0.2039678   3.4150654   0.1058361), wk =   0.0029297
        k(  406) = (  -0.2039678   3.1795437   0.1270033), wk =   0.0029297
        k(  407) = (  -0.2039678   2.9440219   0.1481705), wk =   0.0029297
        k(  408) = (   2.8555495   1.6486523  -0.2116721), wk =   0.0014648
        k(  409) = (   2.8555495   1.4131305  -0.1905049), wk =   0.0029297
        k(  410) = (   2.8555495   1.1776088  -0.1693377), wk =   0.0014648
        k(  411) = (   2.6515817   1.5308914  -0.1693377), wk =   0.0014648
        k(  412) = (  -0.0000000  -0.0000000   0.4445114), wk =   0.0004883
        k(  413) = (  -0.0000000   3.5328263   0.1270033), wk =   0.0014648
        k(  414) = (  -0.0000000   3.2973045   0.1481705), wk =   0.0014648
        k(  415) = (   3.0595173   1.7664131  -0.1905049), wk =   0.0014648
        k(  416) = (   3.0595173   1.5308914  -0.1693377), wk =   0.0014648
        k(  417) = (  -0.0000000   0.0000000  -0.5080131), wk =   0.0002441

                       cryst. coord.
        k(    1) = (   0.0000000   0.0000000   0.0000000), wk =   0.0002441
        k(    2) = (   0.0000000   0.0000000   0.0625000), wk =   0.0014648
        k(    3) = (   0.0000000   0.0000000   0.1250000), wk =   0.0014648
        k(    4) = (   0.0000000   0.0000000   0.1875000), wk =   0.0014648
        k(    5) = (   0.0000000   0.0000000   0.2500000), wk =   0.0014648
        k(    6) = (   0.0000000   0.0000000   0.3125000), wk =   0.0014648
        k(    7) = (   0.0000000   0.0000000   0.3750000), wk =   0.0014648
        k(    8) = (   0.0000000   0.0000000   0.4375000), wk =   0.0014648
        k(    9) = (  -0.0000000  -0.0000000  -0.5000000), wk =   0.0007324
        k(   10) = (   0.0000000   0.0625000   0.0625000), wk =   0.0014648
        k(   11) = (  -0.0000000   0.0625000   0.1250000), wk =   0.0029297
        k(   12) = (  -0.0000000   0.0625000   0.1875000), wk =   0.0029297
        k(   13) = (   0.0000000   0.0625000   0.2500000), wk =   0.0029297
        k(   14) = (  -0.0000000   0.0625000   0.3125000), wk =   0.0029297
        k(   15) = (   0.0000000   0.0625000   0.3750000), wk =   0.0029297
        k(   16) = (   0.0000000   0.0625000   0.4375000), wk =   0.0029297
        k(   17) = (  -0.0000000   0.0625000  -0.5000000), wk =   0.0029297
        k(   18) = (   0.0000000   0.0625000  -0.4375000), wk =   0.0029297
        k(   19) = (  -0.0000000   0.0625000  -0.3750000), wk =   0.0029297
        k(   20) = (  -0.0000000   0.0625000  -0.3125000), wk =   0.0029297
        k(   21) = (  -0.0000000   0.0625000  -0.2500000), wk =   0.0029297
        k(   22) = (  -0.0000000   0.0625000  -0.1875000), wk =   0.0029297
        k(   23) = (   0.0000000   0.0625000  -0.1250000), wk =   0.0029297
        k(   24) = (  -0.0000000   0.0625000  -0.0625000), wk =   0.0014648
        k(   25) = (   0.0000000   0.1250000   0.1250000), wk =   0.0014648
        k(   26) = (   0.0000000   0.1250000   0.1875000), wk =   0.0029297
        k(   27) = (  -0.0000000   0.1250000   0.2500000), wk =   0.0029297
        k(   28) = (  -0.0000000   0.1250000   0.3125000), wk =   0.0029297
        k(   29) = (  -0.0000000   0.1250000   0.3750000), wk =   0.0029297
        k(   30) = (   0.0000000   0.1250000   0.4375000), wk =   0.0029297
        k(   31) = (  -0.0000000   0.1250000  -0.5000000), wk =   0.0029297
        k(   32) = (  -0.0000000   0.1250000  -0.4375000), wk =   0.0029297
        k(   33) = (  -0.0000000   0.1250000  -0.3750000), wk =   0.0029297
        k(   34) = (  -0.0000000   0.1250000  -0.3125000), wk =   0.0029297
        k(   35) = (   0.0000000   0.1250000  -0.2500000), wk =   0.0029297
        k(   36) = (  -0.0000000   0.1250000  -0.1875000), wk =   0.0029297
        k(   37) = (  -0.0000000   0.1250000  -0.1250000), wk =   0.0014648
        k(   38) = (  -0.0000000   0.1875000   0.1875000), wk =   0.0014648
        k(   39) = (  -0.0000000   0.1875000   0.2500000), wk =   0.0029297
        k(   40) = (   0.0000000   0.1875000   0.3125000), wk =   0.0029297
        k(   41) = (  -0.0000000   0.1875000   0.3750000), wk =   0.0029297
        k(   42) = (  -0.0000000   0.1875000   0.4375000), wk =   0.0029297
        k(   43) = (  -0.0000000   0.1875000  -0.5000000), wk =   0.0029297
        k(   44) = (  -0.0000000   0.1875000  -0.4375000), wk =   0.0029297
        k(   45) = (  -0.0000000   0.1875000  -0.3750000), wk =   0.0029297
        k(   46) = (  -0.0000000   0.1875000  -0.3125000), wk =   0.0029297
        k(   47) = (  -0.0000000   0.1875000  -0.2500000), wk =   0.0029297
        k(   48) = (  -0.0000000   0.1875000  -0.1875000), wk =   0.0014648
        k(   49) = (   0.0000000   0.2500000   0.2500000), wk =   0.0014648
        k(   50) = (   0.0000000   0.2500000   0.3125000), wk =   0.0029297
        k(   51) = (   0.0000000   0.2500000   0.3750000), wk =   0.0029297
        k(   52) = (  -0.0000000   0.2500000   0.4375000), wk =   0.0029297
        k(   53) = (   0.0000000   0.2500000  -0.5000000), wk =   0.0029297
        k(   54) = (   0.0000000   0.2500000  -0.4375000), wk =   0.0029297
        k(   55) = (  -0.0000000   0.2500000  -0.3750000), wk =   0.0029297
        k(   56) = (  -0.0000000   0.2500000  -0.3125000), wk =   0.0029297
        k(   57) = (  -0.0000000   0.2500000  -0.2500000), wk =   0.0014648
        k(   58) = (   0.0000000   0.3125000   0.3125000), wk =   0.0014648
        k(   59) = (   0.0000000   0.3125000   0.3750000), wk =   0.0029297
        k(   60) = (   0.0000000   0.3125000   0.4375000), wk =   0.0029297
[...]
        k(  403) = (   0.3750000   0.3750000  -0.3750000), wk =   0.0014648
        k(  404) = (   0.3750000   0.4375000   0.4375000), wk =   0.0014648
        k(  405) = (   0.3750000   0.4375000  -0.5000000), wk =   0.0029297
        k(  406) = (   0.3750000   0.4375000  -0.4375000), wk =   0.0029297
        k(  407) = (   0.3750000   0.4375000  -0.3750000), wk =   0.0029297
        k(  408) = (   0.3750000  -0.5000000  -0.5000000), wk =   0.0014648
        k(  409) = (   0.3750000  -0.5000000  -0.4375000), wk =   0.0029297
        k(  410) = (   0.3750000  -0.5000000  -0.3750000), wk =   0.0014648
        k(  411) = (   0.3750000  -0.4375000  -0.4375000), wk =   0.0014648
        k(  412) = (   0.4375000   0.4375000   0.4375000), wk =   0.0004883
        k(  413) = (   0.4375000   0.4375000  -0.5000000), wk =   0.0014648
        k(  414) = (   0.4375000   0.4375000  -0.4375000), wk =   0.0014648
        k(  415) = (   0.4375000  -0.5000000  -0.5000000), wk =   0.0014648
        k(  416) = (   0.4375000  -0.5000000  -0.4375000), wk =   0.0014648
        k(  417) = (  -0.5000000  -0.5000000  -0.5000000), wk =   0.0002441

     Initial potential from superposition of free atoms

     starting charge     156.9976, renormalised to     157.0000

     atom number    1 relative position :    0.0000   0.0000   0.0000
     charge :    13.714876  (integrated on a sphere of radius 0.089)
     magnetization :          0.000000    0.000000   13.452244
     magnetization/charge:    0.000000    0.000000    0.980851
     polar coord.: r, theta, phi [deg] :    13.452244    0.000000  360.000000

[...]

     Starting wfcs are  176 randomized atomic wfcs

     Self-consistent Calculation

     iteration #  1     ecut=   120.00 Ry     beta= 0.40
     Davidson diagonalization with overlap

     ethr =  1.00E-02,  avg # of iterations =  2.0

     total energy              =   -3476.18379844 Ry
     estimated scf accuracy    <       2.63422916 Ry

     total magnetization       =     0.00     0.00     5.01 Bohr mag/cell
     absolute magnetization    =     5.57 Bohr mag/cell

[...]

     c_bands:  1 eigenvalues not converged
     ethr =  6.69E-05,  avg # of iterations =  9.9

[...]

     c_bands:  1 eigenvalues not converged
     c_bands:  1 eigenvalues not converged
     ethr =  3.71E-06,  avg # of iterations =  7.7

[...]

     total energy              =   -3476.96475066 Ry
     estimated scf accuracy    <          6.3E-13 Ry

[...]

     iteration # 27     ecut=   120.00 Ry     beta= 0.40
     Davidson diagonalization with overlap

     ethr =  1.00E-13,  avg # of iterations =  1.2

[...]

     atom number    7 relative position :   -0.0000   0.0000   0.3879
     charge :    21.705740  (integrated on a sphere of radius 0.087)
     magnetization :          0.000000   -0.000000    0.051460
     magnetization/charge:    0.000000   -0.000000    0.002371
     polar coord.: r, theta, phi [deg] :     0.051460    0.000000  360.000000

     End of self-consistent calculation

          k = 0.0000 0.0000 0.0000 ( 32143 PWs)   bands (ev):

  -148.6788-148.6788-148.6736-148.6736-148.1762-148.1762-148.1723-148.1723
  -133.8209-133.8209-133.8160-133.8160-105.5818-105.5818-105.5798-105.5798
  -105.0785-105.0785-105.0767-105.0767 -95.8511 -95.8511 -95.8450 -95.8450
   -95.8378 -95.8378 -95.8363 -95.8362 -95.3479 -95.3479 -95.3468 -95.3468
   -95.3321 -95.3321 -95.3275 -95.3275 -92.8533 -92.8533 -92.8511 -92.8511
   -84.2417 -84.2417 -84.2390 -84.2390 -84.2366 -84.2366 -84.2361 -84.2361
   -70.7558 -66.2785 -40.1335 -39.7020 -39.2200 -35.5754 -35.1472 -34.8210
   -27.1452 -27.1447 -27.1389 -27.1383 -27.1290 -27.1273 -27.1271 -27.1255
   -26.6384 -26.6377 -26.6368 -26.6361 -26.6185 -26.6182 -26.6143 -26.6140
   -25.6834 -25.6832 -25.6727 -25.6723 -25.6701 -25.6673 -25.6642 -25.6615
   -25.6593 -25.6586 -25.6576 -25.6566 -25.1716 -25.1710 -25.1707 -25.1701
   -25.1654 -25.1644 -25.1617 -25.1607 -25.1472 -25.1471 -25.1403 -25.1401
   -19.5274 -19.5274 -19.5216 -19.5216 -19.5207 -19.5207 -19.5192 -19.5192
   -18.2879 -18.2879 -18.2817 -18.2817 -18.2793 -18.2793 -18.2761 -18.2761
   -18.2758 -18.2758 -18.2748 -18.2748  -2.4755  -2.4156  -2.1797  -2.1228
    -1.0395  -0.9519  -0.4074  -0.3580   2.2999   2.3912   3.2415   3.2967
     6.4759   6.8360   7.2355   7.2570   7.7797   7.7927   7.8913   8.2327
     8.2847   8.3192   8.3468   8.6548   8.8666   8.8762   8.8956   9.0152
     9.0271   9.0427   9.0510   9.0695   9.2953   9.6032   9.6515  10.0360
    10.1315  10.2120  10.4837  10.7745  10.7941  10.8414

     occupation numbers
     1.0000   1.0000   1.0000   1.0000   1.0000   1.0000   1.0000   1.0000
     1.0000   1.0000   1.0000   1.0000   1.0000   1.0000   1.0000   1.0000
     1.0000   1.0000   1.0000   1.0000   1.0000   1.0000   1.0000   1.0000
     1.0000   1.0000   1.0000   1.0000   1.0000   1.0000   1.0000   1.0000
     1.0000   1.0000   1.0000   1.0000   1.0000   1.0000   1.0000   1.0000
     1.0000   1.0000   1.0000   1.0000   1.0000   1.0000   1.0000   1.0000
     1.0000   1.0000   1.0000   1.0000   1.0000   1.0000   1.0000   1.0000
     1.0000   1.0000   1.0000   1.0000   1.0000   1.0000   1.0000   1.0000
     1.0000   1.0000   1.0000   1.0000   1.0000   1.0000   1.0000   1.0000
     1.0000   1.0000   1.0000   1.0000   1.0000   1.0000   1.0000   1.0000
     1.0000   1.0000   1.0000   1.0000   1.0000   1.0000   1.0000   1.0000
     1.0000   1.0000   1.0000   1.0000   1.0000   1.0000   1.0000   1.0000
     1.0000   1.0000   1.0000   1.0000   1.0000   1.0000   1.0000   1.0000
     1.0000   1.0000   1.0000   1.0000   1.0000   1.0000   1.0000   1.0000
     1.0000   1.0000   1.0000   1.0000   1.0000   1.0000   1.0000   1.0000
     1.0000   1.0000   1.0000   1.0000   1.0000   1.0000   1.0000   1.0000
     1.0000   1.0000   1.0000   1.0000   1.0000   1.0000   1.0000   1.0000
     1.0000   1.0000   1.0000   1.0000   1.0000   1.0000   1.0000   1.0000
     1.0000   1.0000   1.0000   1.0000   1.0000   1.0000   1.0000   1.0000
     1.0000   1.0000   1.0000   1.0000   1.0000   0.0000

[...]

          k =-0.0000 1.8842-0.1693 ( 32272 PWs)   bands (ev):

[...]

          k = 3.0595 1.5309-0.1693 ( 32198 PWs)   bands (ev):

[...]

          k =-0.0000 0.0000-0.5080 ( 32154 PWs)   bands (ev):

  -148.6788-148.6788-148.6736-148.6736-148.1762-148.1762-148.1723-148.1723
  -133.8209-133.8209-133.8160-133.8160-105.5818-105.5818-105.5798-105.5798
  -105.0785-105.0785-105.0767-105.0767 -95.8511 -95.8511 -95.8450 -95.8450
   -95.8378 -95.8378 -95.8363 -95.8362 -95.3479 -95.3479 -95.3468 -95.3468
   -95.3321 -95.3321 -95.3275 -95.3275 -92.8533 -92.8533 -92.8511 -92.8511
   -84.2417 -84.2417 -84.2390 -84.2390 -84.2366 -84.2366 -84.2361 -84.2361
   -70.7558 -66.2785 -40.1335 -39.7020 -39.2200 -35.5754 -35.1472 -34.8210
   -27.1452 -27.1447 -27.1389 -27.1383 -27.1290 -27.1273 -27.1271 -27.1255
   -26.6384 -26.6377 -26.6368 -26.6361 -26.6185 -26.6182 -26.6143 -26.6140
   -25.6834 -25.6832 -25.6727 -25.6723 -25.6701 -25.6673 -25.6642 -25.6615
   -25.6593 -25.6586 -25.6576 -25.6566 -25.1716 -25.1710 -25.1707 -25.1701
   -25.1654 -25.1644 -25.1617 -25.1607 -25.1472 -25.1471 -25.1403 -25.1401
   -19.5274 -19.5274 -19.5216 -19.5216 -19.5207 -19.5207 -19.5192 -19.5192
   -18.2879 -18.2879 -18.2817 -18.2817 -18.2793 -18.2793 -18.2761 -18.2761
   -18.2758 -18.2758 -18.2748 -18.2748  -2.4461  -2.3888  -2.2342  -2.1723
    -0.8755  -0.7888  -0.5828  -0.5317   2.6371   2.6927   2.8752   2.9724
     6.7447   7.0882   7.2570   7.3702   7.7453   7.7722   7.7800   7.7927
     8.0941   8.4292   8.4550   8.5359   8.5588   8.8804   8.8984   8.9355
     8.9570   9.0391   9.2100   9.2210   9.3820   9.8649   9.8692  10.0568
    10.0728  10.1371  10.5011  10.5918  10.6032  10.9525

     occupation numbers
     1.0000   1.0000   1.0000   1.0000   1.0000   1.0000   1.0000   1.0000
     1.0000   1.0000   1.0000   1.0000   1.0000   1.0000   1.0000   1.0000
     1.0000   1.0000   1.0000   1.0000   1.0000   1.0000   1.0000   1.0000
     1.0000   1.0000   1.0000   1.0000   1.0000   1.0000   1.0000   1.0000
     1.0000   1.0000   1.0000   1.0000   1.0000   1.0000   1.0000   1.0000
     1.0000   1.0000   1.0000   1.0000   1.0000   1.0000   1.0000   1.0000
     1.0000   1.0000   1.0000   1.0000   1.0000   1.0000   1.0000   1.0000
     1.0000   1.0000   1.0000   1.0000   1.0000   1.0000   1.0000   1.0000
     1.0000   1.0000   1.0000   1.0000   1.0000   1.0000   1.0000   1.0000
     1.0000   1.0000   1.0000   1.0000   1.0000   1.0000   1.0000   1.0000
     1.0000   1.0000   1.0000   1.0000   1.0000   1.0000   1.0000   1.0000
     1.0000   1.0000   1.0000   1.0000   1.0000   1.0000   1.0000   1.0000
     1.0000   1.0000   1.0000   1.0000   1.0000   1.0000   1.0000   1.0000
     1.0000   1.0000   1.0000   1.0000   1.0000   1.0000   1.0000   1.0000
     1.0000   1.0000   1.0000   1.0000   1.0000   1.0000   1.0000   1.0000
     1.0000   1.0000   1.0000   1.0000   1.0000   1.0000   1.0000   1.0000
     1.0000   1.0000   1.0000   1.0000   1.0000   1.0000   1.0000   1.0000
     1.0000   1.0000   1.0000   1.0000   1.0000   1.0000   1.0000   1.0000
     1.0000   1.0000   1.0000   1.0000   1.0000   1.0000   1.0000   1.0000
     1.0000   1.0000   1.0000   1.0000   1.0000   0.0000

     highest occupied, lowest unoccupied level (ev):    10.8065   10.8256

!    total energy              =   -3476.96475066 Ry
     estimated scf accuracy    <          5.6E-14 Ry

     The total energy is the sum of the following terms:
     one-electron contribution =   -2530.98231228 Ry
     hartree contribution      =    1207.22521901 Ry
     xc contribution           =    -467.79200495 Ry
     ewald contribution        =   -1685.41565245 Ry

     total magnetization       =     0.00     0.00     4.99 Bohr mag/cell
     absolute magnetization    =     5.01 Bohr mag/cell

     convergence has been achieved in  27 iterations

     Writing all to output data dir /projects/0/prjs0388/Farhan/MST-qe/qe-yambo/out-16-120/MST.save/

     General routines

     Parallel routines

   This run was terminated on:  19:33:18   5Nov2023

   JOB DONE.