     Program PWSCF v.7.1 starts on  9Dec2023 at  0:48:44

     Reading input from MST_scf.in

     Current dimensions of program PWSCF are:
     Max number of different atomic species (ntypx) = 10
     Max number of k-points (npk) =  40000
     Max angular momentum in pseudopotentials (lmaxx) =  4

     Fixed quantization axis for GGA:     0.000000    0.000000    1.000000
     Message from routine setup:
     the system is metallic, specify occupations
     Message from routine setup:
     using ibrav=0 with symmetry is DISCOURAGED, use correct ibrav instead

     R & G space division:  proc/nbgrp/npool/nimage =      64
     Subspace diagonalization in iterative solution of the eigenvalue problem:
     one sub-group per band group will be used

     Using Slab Decomposition

     bravais-lattice index     =            0
     lattice parameter (alat)  =      26.2798  a.u.
     unit-cell volume          =    1452.5474 (a.u.)^3
     number of atoms/cell      =            7
     number of atomic types    =            3
     number of electrons       =       157.00
     number of Kohn-Sham states=          158
     kinetic-energy cutoff     =      90.0000  Ry
     charge density cutoff     =     360.0000  Ry
     scf convergence threshold =      1.0E-13
     mixing beta               =       0.4000
     number of iterations used =            8  plain     mixing
     Exchange-correlation= PBESOL
                           (   1   4  10   8   0   0   0)
     Noncollinear calculation with spin-orbit

     celldm(1)=  26.279834  celldm(2)=   0.000000  celldm(3)=   0.000000
     celldm(4)=   0.000000  celldm(5)=   0.000000  celldm(6)=   0.000000

     crystal axes: (cart. coord. in units of alat)
               a(1) = (   0.153210   0.088456   0.984227 )
               a(2) = (  -0.153210   0.088456   0.984227 )
               a(3) = (   0.000000  -0.176912   0.984227 )

     reciprocal axes: (cart. coord. in units 2 pi/alat)
               b(1) = (  3.263485  1.884174  0.338675 )
               b(2) = ( -3.263485  1.884174  0.338675 )
               b(3) = (  0.000000 -3.768348  0.338675 )

     PseudoPot. # 1 for Mn read from file:
     /gpfs/work4/0/prjs0822/MST/pseudo/Mn.upf
     MD5 check sum: 9b50e869e35b4674015a8a9b1d40c02b
     Pseudo is Norm-conserving + core correction, Zval = 15.0
     Generated using ONCVPSP code by D. R. Hamann
     Using radial grid of 1448 points, 10 beta functions with:
                l(1) =   0
                l(2) =   0
                l(3) =   1
                l(4) =   1
                l(5) =   1
                l(6) =   1
                l(7) =   2
                l(8) =   2
                l(9) =   2
               l(10) =   2

     PseudoPot. # 2 for Sb read from file:
     /gpfs/work4/0/prjs0822/MST/pseudo/Sb.upf
     MD5 check sum: d7e4a923c9e5eb416dd6a712e5c7b634
     Pseudo is Norm-conserving + core correction, Zval = 23.0
     Generated using ONCVPSP code by D. R. Hamann
     Using radial grid of 1452 points, 10 beta functions with:
                l(1) =   0
                l(2) =   0
                l(3) =   1
                l(4) =   1
                l(5) =   1
                l(6) =   1
                l(7) =   2
                l(8) =   2
                l(9) =   2
               l(10) =   2

     PseudoPot. # 3 for Te read from file:
     /gpfs/work4/0/prjs0822/MST/pseudo/Te.upf
     MD5 check sum: 79d0c337239bdfc348e5dd475cdca76d
     Pseudo is Norm-conserving + core correction, Zval = 24.0
     Generated using ONCVPSP code by D. R. Hamann
     Using radial grid of 1310 points, 10 beta functions with:
                l(1) =   0
                l(2) =   0
                l(3) =   1
                l(4) =   1
                l(5) =   1
                l(6) =   1
                l(7) =   2
                l(8) =   2
                l(9) =   2
               l(10) =   2

     atomic species   valence    mass     pseudopotential
        Mn            15.00     1.00000     Mn( 1.00)
        Sb            23.00     1.00000     Sb( 1.00)
        Te            24.00     1.00000     Te( 1.00)

     12 Sym. Ops., with inversion, found

   Cartesian axes

     site n.     atom                  positions (alat units)
         1           Mn  tau(   1) = (   0.0000000   0.0000000   0.0000000  )
         2           Sb  tau(   2) = (  -0.0000000   0.1769122   0.7132986  )
         3           Sb  tau(   3) = (  -0.0000000   0.1769122   0.2709281  )
         4           Te  tau(   4) = (   0.1532104   0.0884561   0.1214536  )
         5           Te  tau(   5) = (   0.0000000   0.0000000   0.8627731  )
         6           Te  tau(   6) = (   0.1532104   0.0884561   0.5963626  )
         7           Te  tau(   7) = (  -0.0000000   0.0000000   0.3878640  )

     number of k points=    32
                       cart. coord. in units 2pi/alat
        k(    1) = (   0.0000000   0.0000000   0.0000000), wk =   0.0046296
        k(    2) = (   0.0000000  -0.6280580   0.0564459), wk =   0.0277778
        k(    3) = (   0.0000000  -1.2561160   0.1128918), wk =   0.0277778
        k(    4) = (  -0.0000000   1.8841740  -0.1693377), wk =   0.0138889
        k(    5) = (  -0.5439142  -0.3140290   0.1128918), wk =   0.0277778
        k(    6) = (  -0.5439142  -0.9420870   0.1693377), wk =   0.0555556
        k(    7) = (  -0.5439142   2.1982030  -0.1128918), wk =   0.0555556
        k(    8) = (  -0.5439142   1.5701450  -0.0564459), wk =   0.0555556
        k(    9) = (  -0.5439142   0.9420870   0.0000000), wk =   0.0277778
        k(   10) = (  -1.0878284  -0.6280580   0.2257836), wk =   0.0277778
        k(   11) = (  -1.0878284   2.5122320  -0.0564459), wk =   0.0555556
        k(   12) = (  -1.0878284   1.8841740  -0.0000000), wk =   0.0277778
        k(   13) = (   1.6317426   0.9420870  -0.3386754), wk =   0.0138889
        k(   14) = (   0.0000000   0.0000000   0.1693377), wk =   0.0092593
        k(   15) = (   0.0000000  -0.6280580   0.2257836), wk =   0.0277778
        k(   16) = (  -0.0000000   2.5122320  -0.0564459), wk =   0.0277778
        k(   17) = (  -0.0000000   1.8841740  -0.0000000), wk =   0.0277778
        k(   18) = (  -0.0000000   1.2561160   0.0564459), wk =   0.0277778
        k(   19) = (  -0.5439142  -0.3140290   0.2822295), wk =   0.0277778
        k(   20) = (  -0.5439142   2.8262610   0.0000000), wk =   0.0555556
        k(   21) = (  -0.5439142   2.1982030   0.0564459), wk =   0.0555556
        k(   22) = (  -0.5439142   1.5701450   0.1128918), wk =   0.0555556
        k(   23) = (   2.1756568   1.2561160  -0.2822295), wk =   0.0277778
        k(   24) = (   2.1756568   0.6280580  -0.2257836), wk =   0.0555556
        k(   25) = (   2.1756568  -0.0000000  -0.1693377), wk =   0.0277778
        k(   26) = (   1.6317426   0.9420870  -0.1693377), wk =   0.0277778
        k(   27) = (   0.0000000   0.0000000   0.3386754), wk =   0.0092593
        k(   28) = (  -0.0000000   3.1402900   0.0564459), wk =   0.0277778
        k(   29) = (  -0.0000000   2.5122320   0.1128918), wk =   0.0277778
        k(   30) = (   2.7195709   1.5701450  -0.2257836), wk =   0.0277778
        k(   31) = (   2.7195709   0.9420870  -0.1693377), wk =   0.0277778
        k(   32) = (  -0.0000000   0.0000000  -0.5080131), wk =   0.0046296

     Initial potential from superposition of free atoms

     starting charge     156.9976, renormalised to     157.0000

     atom number    1 relative position :    0.0000   0.0000   0.0000
     charge :    13.714812  (integrated on a sphere of radius 0.089)
     magnetization :          0.000000    0.000000   13.452196
     magnetization/charge:    0.000000    0.000000    0.980852
     polar coord.: r, theta, phi [deg] :    13.452196    0.000000  360.000000

[...]

     Starting wfcs are  176 randomized atomic wfcs

     Self-consistent Calculation

     iteration #  1     ecut=    90.00 Ry     beta= 0.40
     Davidson diagonalization with overlap
     ethr =  1.00E-02,  avg # of iterations =  2.0

     total energy              =   -3476.12703125 Ry
     estimated scf accuracy    <       2.64953016 Ry

     total magnetization       =    -0.00     0.00     5.01 Bohr mag/cell
     absolute magnetization    =     5.57 Bohr mag/cell

[...]

     iteration #  6     ecut=    90.00 Ry     beta= 0.40
     Davidson diagonalization with overlap
     c_bands:  1 eigenvalues not converged
     c_bands:  1 eigenvalues not converged
     c_bands:  1 eigenvalues not converged
     c_bands:  1 eigenvalues not converged
     c_bands:  1 eigenvalues not converged
     c_bands:  1 eigenvalues not converged
     c_bands:  1 eigenvalues not converged
     c_bands:  1 eigenvalues not converged
     ethr =  6.11E-05,  avg # of iterations = 12.5

[...]

     iteration # 20     ecut=    90.00 Ry     beta= 0.40
     Davidson diagonalization with overlap
     c_bands:  1 eigenvalues not converged
     c_bands:  1 eigenvalues not converged
     ethr =  1.00E-13,  avg # of iterations =  3.9

[...]

     total energy              =   -3476.90638164 Ry
     estimated scf accuracy    <          2.3E-13 Ry

[...]

     iteration # 23     ecut=    90.00 Ry     beta= 0.40
     Davidson diagonalization with overlap
     ethr =  1.00E-13,  avg # of iterations =  1.0

[...]

     atom number    7 relative position :   -0.0000   0.0000   0.3879
     charge :    21.706273  (integrated on a sphere of radius 0.087)
     magnetization :         -0.000000    0.000000    0.053418
     magnetization/charge:   -0.000000    0.000000    0.002461
     polar coord.: r, theta, phi [deg] :     0.053418    0.000000  360.000000

     End of self-consistent calculation

          k = 0.0000 0.0000 0.0000 ( 20899 PWs)   bands (ev):

  -148.6902-148.6902-148.6849-148.6849-148.1742-148.1742-148.1702-148.1702
  -133.8346-133.8346-133.8301-133.8301-105.5911-105.5911-105.5886-105.5886
  -105.0742-105.0742-105.0724-105.0724 -95.8584 -95.8584 -95.8518 -95.8518
   -95.8469 -95.8468 -95.8458 -95.8458 -95.3437 -95.3437 -95.3427 -95.3427
   -95.3261 -95.3260 -95.3213 -95.3212 -92.8657 -92.8657 -92.8636 -92.8636
   -84.2534 -84.2534 -84.2504 -84.2504 -84.2488 -84.2488 -84.2478 -84.2478
   -70.9013 -66.4281 -40.2867 -39.8560 -39.3706 -35.7341 -35.3065 -34.9778
   -27.1473 -27.1465 -27.1401 -27.1394 -27.1335 -27.1318 -27.1314 -27.1297
   -26.6293 -26.6287 -26.6277 -26.6271 -26.6069 -26.6069 -26.6026 -26.6025
   -25.6850 -25.6847 -25.6736 -25.6735 -25.6728 -25.6706 -25.6679 -25.6651
   -25.6636 -25.6631 -25.6624 -25.6615 -25.1628 -25.1622 -25.1620 -25.1614
   -25.1555 -25.1547 -25.1518 -25.1510 -25.1353 -25.1353 -25.1280 -25.1280
   -19.5355 -19.5354 -19.5298 -19.5297 -19.5286 -19.5285 -19.5275 -19.5273
   -18.2960 -18.2960 -18.2898 -18.2897 -18.2872 -18.2871 -18.2843 -18.2842
   -18.2841 -18.2840 -18.2831 -18.2830  -2.4798  -2.4197  -2.1843  -2.1276
    -1.0343  -0.9453  -0.4031  -0.3525   2.2975   2.3900   3.2391   3.2953
     6.4774   6.8383   7.2434   7.2673   7.7871   7.7994   7.8957   8.2273
     8.2801   8.3169   8.3470   8.6581   8.8610   8.8752   8.8898   9.0097
     9.0278   9.0451   9.0511   9.0657   9.3026   9.6072   9.6573  10.0427
    10.1360  10.2187  10.4907  10.7743  10.7907  10.8338

[...]

          k =-0.0000 1.8842-0.1693 ( 20990 PWs)   bands (ev):

[...]

          k = 2.7196 0.9421-0.1693 ( 20930 PWs)   bands (ev):

[...]

          k =-0.0000 0.0000-0.5080 ( 20832 PWs)   bands (ev):

  -148.6902-148.6902-148.6849-148.6849-148.1742-148.1742-148.1702-148.1702
  -133.8346-133.8346-133.8301-133.8301-105.5911-105.5911-105.5886-105.5886
  -105.0742-105.0742-105.0724-105.0724 -95.8584 -95.8584 -95.8518 -95.8518
   -95.8469 -95.8468 -95.8458 -95.8458 -95.3437 -95.3437 -95.3427 -95.3427
   -95.3261 -95.3260 -95.3213 -95.3212 -92.8657 -92.8657 -92.8636 -92.8636
   -84.2534 -84.2534 -84.2504 -84.2504 -84.2488 -84.2488 -84.2478 -84.2478
   -70.9007 -66.4275 -40.2867 -39.8559 -39.3706 -35.7341 -35.3065 -34.9777
   -27.1472 -27.1465 -27.1400 -27.1393 -27.1333 -27.1316 -27.1313 -27.1296
   -26.6291 -26.6286 -26.6275 -26.6270 -26.6068 -26.6068 -26.6025 -26.6025
   -25.6850 -25.6847 -25.6735 -25.6733 -25.6728 -25.6706 -25.6678 -25.6650
   -25.6634 -25.6629 -25.6623 -25.6613 -25.1626 -25.1620 -25.1618 -25.1613
   -25.1554 -25.1547 -25.1516 -25.1509 -25.1353 -25.1352 -25.1280 -25.1279
   -19.5354 -19.5354 -19.5297 -19.5296 -19.5285 -19.5285 -19.5273 -19.5272
   -18.2960 -18.2960 -18.2897 -18.2897 -18.2871 -18.2870 -18.2842 -18.2841
   -18.2840 -18.2840 -18.2830 -18.2829  -2.4509  -2.3934  -2.2378  -2.1760
    -0.8712  -0.7833  -0.5782  -0.5257   2.6350   2.6915   2.8729   2.9711
     6.7482   7.0943   7.2677   7.3756   7.7434   7.7686   7.7910   7.8030
     8.1044   8.4236   8.4546   8.5313   8.5557   8.8746   8.9059   8.9322
     8.9579   9.0334   9.2110   9.2234   9.3870   9.8677   9.8679  10.0612
    10.0804  10.1435  10.4997  10.6001  10.6007  10.9510

     highest occupied, lowest unoccupied level (ev):    10.7907   10.8338

!    total energy              =   -3476.90638164 Ry
     estimated scf accuracy    <          4.9E-14 Ry

     The total energy is the sum of the following terms:
     one-electron contribution =   -2530.80044835 Ry
     hartree contribution      =    1207.06607695 Ry
     xc contribution           =    -467.75635778 Ry
     ewald contribution        =   -1685.41565245 Ry

     total magnetization       =    -0.00     0.00     4.99 Bohr mag/cell
     absolute magnetization    =     5.02 Bohr mag/cell

     convergence has been achieved in  23 iterations

     Writing all to output data dir /gpfs/work4/0/prjs0822/MST/out/MST.save/

     General routines

     Parallel routines

   This run was terminated on:   1:17:39   9Dec2023

   JOB DONE.